c instance by G2
c solution = 01010000000101110101
c Known solution cost is 4290 
p cnf 20 40
w 39 138 316 580 133 267 840 242 872 632 136 959 192 684 334 995 512 410 772 190
-19 -10 2 0
-19 5 11 0
-12 9 2 0
15 -18 11 0
3 -4 -17 0
19 1 -5 0
19 6 16 0
11 10 12 0
-20 -1 -14 0
-2 -10 6 0
-9 17 6 0
12 -2 -5 0
-5 17 20 0
-2 7 -1 0
19 2 -14 0
7 -5 -10 0
8 14 11 0
7 -3 10 0
7 -16 -11 0
-6 -14 -10 0
10 11 -13 0
16 3 -4 0
-15 -18 -1 0
18 17 1 0
17 -1 4 0
17 -2 -10 0
16 10 -15 0
17 -16 15 0
-14 11 4 0
12 11 -20 0
-11 9 6 0
6 20 -10 0
-7 13 -18 0
11 -8 -2 0
2 10 -3 0
-9 -6 -10 0
7 20 3 0
-8 10 16 0
3 -13 -18 0
-6 11 8 0
